12
440 2500 20
90 1940 15
650 7220 20
20 1670 10
300 3360 15
730 3800 15
230 1290 20
580 4640 10
370 1430 10
810 2880 10
160 1210 10
510 1870 15
0 340 75 210 560 130 720 450 960 240 600 410 785
285 0 180 640 95 370 520 150 840 300 720 460 610
530 270 0 115 790 240 360 650 170 440 910 380 555
140 860 200 0 430 680 120 990 310 560 250 730 480
400 190 610 85 0 530 770 290 650 150 840 320 720
670 350 150 600 240 0 480 720 130 960 300 540 210
90 410 730 250 660 120 0 840 360 500 290 610 140
520 300 470 900 180 750 210 0 430 670 150 820 260
610 480 95 350 720 540 380 150 0 310 860 200 640
750 560 240 470 310 680 150 520 410 0 990 330 180
360 720 530 150 840 290 610 250 460 130 0 785 400
820 430 690 260 170 360 900 540 210 650 300 0 120
140 960 410 720 480 210 555 260 640 180 400 120 0
